c 
c G(k,n,p) graph
c graph gen seed     : 4599
c number of vertices : 80
c max number of edges: 1600
c number of classes  : 2
c edge density       : 0.400000
c edge probability   : 0.800000
c data structure     : dense
c
c           Graph Stats
c number of vertices  : 80
c nonisolated vertices: 80
c number of edges     : 1273
c edge density        : 0.402848
c max degree          : 41
c avg degree          : 31.82
c min degree          : 23
p col 80 1273
e 1 2
e 1 3
e 1 4
e 1 5
e 1 6
e 1 8
e 1 9
e 1 11
e 1 12
e 1 13
e 1 14
e 1 16
e 1 18
e 1 19
e 1 21
e 1 22
e 1 23
e 1 26
e 1 27
e 1 28
e 1 31
e 1 32
e 1 33
e 1 35
e 1 37
e 1 38
e 1 40
e 1 43
e 1 47
e 1 49
e 1 50
e 1 51
e 1 52
e 1 53
e 1 54
e 1 55
e 1 56
e 1 57
e 1 58
e 1 59
e 1 61
e 1 63
e 1 65
e 1 66
e 1 67
e 1 71
e 1 72
e 1 73
e 1 74
e 1 75
e 1 77
e 1 78
e 1 80
e 2 3
e 2 4
e 2 5
e 2 6
e 2 8
e 2 9
e 2 10
e 2 11
e 2 12
e 2 13
e 2 14
e 2 18
e 2 19
e 2 20
e 2 21
e 2 22
e 2 23
e 2 24
e 2 26
e 2 27
e 2 28
e 2 30
e 2 31
e 2 32
e 2 33
e 2 35
e 2 37
e 2 38
e 2 40
e 2 41
e 2 43
e 2 49
e 2 50
e 2 51
e 2 53
e 2 54
e 2 55
e 2 56
e 2 57
e 2 58
e 2 59
e 2 61
e 2 63
e 2 64
e 2 67
e 2 69
e 2 73
e 2 74
e 2 75
e 2 77
e 2 80
e 3 4
e 3 5
e 3 6
e 3 8
e 3 9
e 3 11
e 3 12
e 3 13
e 3 14
e 3 16
e 3 18
e 3 19
e 3 21
e 3 22
e 3 23
e 3 26
e 3 27
e 3 28
e 3 31
e 3 32
e 3 33
e 3 35
e 3 37
e 3 38
e 3 40
e 3 41
e 3 43
e 3 46
e 3 49
e 3 50
e 3 51
e 3 54
e 3 55
e 3 56
e 3 57
e 3 58
e 3 59
e 3 61
e 3 63
e 3 64
e 3 65
e 3 67
e 3 68
e 3 70
e 3 71
e 3 72
e 3 73
e 3 75
e 3 77
e 3 80
e 4 5
e 4 6
e 4 8
e 4 9
e 4 11
e 4 12
e 4 13
e 4 14
e 4 18
e 4 19
e 4 20
e 4 21
e 4 22
e 4 23
e 4 26
e 4 27
e 4 28
e 4 31
e 4 32
e 4 33
e 4 35
e 4 37
e 4 38
e 4 39
e 4 40
e 4 41
e 4 42
e 4 43
e 4 49
e 4 50
e 4 51
e 4 52
e 4 54
e 4 55
e 4 56
e 4 57
e 4 58
e 4 59
e 4 60
e 4 61
e 4 62
e 4 63
e 4 64
e 4 67
e 4 70
e 4 73
e 4 75
e 4 77
e 4 80
e 5 6
e 5 8
e 5 9
e 5 11
e 5 12
e 5 13
e 5 14
e 5 15
e 5 17
e 5 18
e 5 19
e 5 21
e 5 22
e 5 23
e 5 26
e 5 27
e 5 28
e 5 29
e 5 31
e 5 32
e 5 33
e 5 35
e 5 37
e 5 38
e 5 39
e 5 40
e 5 41
e 5 43
e 5 45
e 5 47
e 5 49
e 5 50
e 5 51
e 5 52
e 5 54
e 5 55
e 5 56
e 5 57
e 5 58
e 5 59
e 5 60
e 5 61
e 5 63
e 5 66
e 5 67
e 5 73
e 5 75
e 5 77
e 5 80
e 6 8
e 6 9
e 6 11
e 6 12
e 6 13
e 6 14
e 6 15
e 6 17
e 6 18
e 6 19
e 6 21
e 6 22
e 6 23
e 6 26
e 6 27
e 6 28
e 6 31
e 6 32
e 6 33
e 6 35
e 6 37
e 6 38
e 6 40
e 6 41
e 6 43
e 6 46
e 6 49
e 6 50
e 6 51
e 6 53
e 6 54
e 6 55
e 6 56
e 6 57
e 6 58
e 6 59
e 6 60
e 6 61
e 6 63
e 6 67
e 6 73
e 6 75
e 6 77
e 6 80
e 7 10
e 7 14
e 7 15
e 7 16
e 7 17
e 7 20
e 7 24
e 7 25
e 7 29
e 7 30
e 7 32
e 7 34
e 7 36
e 7 39
e 7 40
e 7 41
e 7 42
e 7 44
e 7 45
e 7 46
e 7 47
e 7 48
e 7 52
e 7 53
e 7 54
e 7 55
e 7 60
e 7 62
e 7 64
e 7 65
e 7 66
e 7 68
e 7 69
e 7 70
e 7 71
e 7 72
e 7 74
e 7 76
e 7 77
e 7 78
e 7 79
e 8 9
e 8 11
e 8 12
e 8 13
e 8 14
e 8 16
e 8 18
e 8 19
e 8 21
e 8 22
e 8 23
e 8 26
e 8 27
e 8 28
e 8 31
e 8 32
e 8 33
e 8 35
e 8 37
e 8 38
e 8 40
e 8 42
e 8 43
e 8 45
e 8 49
e 8 50
e 8 51
e 8 54
e 8 55
e 8 56
e 8 57
e 8 58
e 8 59
e 8 60
e 8 61
e 8 63
e 8 67
e 8 68
e 8 73
e 8 75
e 8 77
e 8 80
e 9 11
e 9 12
e 9 13
e 9 14
e 9 16
e 9 18
e 9 19
e 9 21
e 9 22
e 9 23
e 9 26
e 9 27
e 9 28
e 9 31
e 9 32
e 9 33
e 9 35
e 9 37
e 9 38
e 9 40
e 9 42
e 9 43
e 9 45
e 9 46
e 9 49
e 9 50
e 9 51
e 9 54
e 9 55
e 9 56
e 9 57
e 9 58
e 9 59
e 9 61
e 9 63
e 9 67
e 9 73
e 9 75
e 9 77
e 9 80
e 10 13
e 10 15
e 10 16
e 10 17
e 10 20
e 10 24
e 10 25
e 10 26
e 10 29
e 10 30
e 10 34
e 10 36
e 10 39
e 10 40
e 10 41
e 10 42
e 10 43
e 10 44
e 10 45
e 10 46
e 10 47
e 10 48
e 10 51
e 10 52
e 10 53
e 10 59
e 10 60
e 10 62
e 10 64
e 10 65
e 10 66
e 10 68
e 10 69
e 10 70
e 10 71
e 10 72
e 10 74
e 10 76
e 10 78
e 10 79
e 11 12
e 11 13
e 11 14
e 11 18
e 11 19
e 11 21
e 11 22
e 11 23
e 11 26
e 11 27
e 11 28
e 11 29
e 11 31
e 11 32
e 11 33
e 11 35
e 11 37
e 11 38
e 11 40
e 11 42
e 11 43
e 11 45
e 11 48
e 11 49
e 11 50
e 11 51
e 11 54
e 11 55
e 11 56
e 11 57
e 11 58
e 11 59
e 11 61
e 11 63
e 11 64
e 11 65
e 11 67
e 11 68
e 11 73
e 11 75
e 11 77
e 11 79
e 11 80
e 12 13
e 12 14
e 12 18
e 12 19
e 12 21
e 12 22
e 12 23
e 12 26
e 12 27
e 12 28
e 12 31
e 12 32
e 12 33
e 12 35
e 12 37
e 12 38
e 12 40
e 12 43
e 12 44
e 12 49
e 12 50
e 12 51
e 12 53
e 12 54
e 12 55
e 12 56
e 12 57
e 12 58
e 12 59
e 12 61
e 12 63
e 12 66
e 12 67
e 12 69
e 12 70
e 12 72
e 12 73
e 12 75
e 12 77
e 12 80
e 13 14
e 13 18
e 13 19
e 13 20
e 13 21
e 13 22
e 13 23
e 13 26
e 13 27
e 13 28
e 13 29
e 13 30
e 13 31
e 13 32
e 13 33
e 13 35
e 13 36
e 13 37
e 13 38
e 13 40
e 13 43
e 13 49
e 13 50
e 13 51
e 13 54
e 13 55
e 13 56
e 13 57
e 13 58
e 13 59
e 13 60
e 13 61
e 13 63
e 13 67
e 13 68
e 13 73
e 13 74
e 13 75
e 13 77
e 13 80
e 14 18
e 14 19
e 14 20
e 14 21
e 14 22
e 14 23
e 14 26
e 14 27
e 14 28
e 14 29
e 14 31
e 14 32
e 14 33
e 14 35
e 14 36
e 14 37
e 14 38
e 14 39
e 14 40
e 14 43
e 14 45
e 14 49
e 14 50
e 14 51
e 14 53
e 14 54
e 14 55
e 14 56
e 14 57
e 14 58
e 14 59
e 14 60
e 14 61
e 14 63
e 14 66
e 14 67
e 14 68
e 14 73
e 14 75
e 14 76
e 14 77
e 14 80
e 15 16
e 15 17
e 15 20
e 15 24
e 15 25
e 15 26
e 15 29
e 15 30
e 15 33
e 15 34
e 15 35
e 15 36
e 15 39
e 15 41
e 15 42
e 15 44
e 15 45
e 15 46
e 15 47
e 15 48
e 15 52
e 15 53
e 15 54
e 15 60
e 15 62
e 15 64
e 15 65
e 15 66
e 15 68
e 15 69
e 15 70
e 15 71
e 15 72
e 15 73
e 15 74
e 15 76
e 15 78
e 15 79
e 16 17
e 16 20
e 16 23
e 16 24
e 16 25
e 16 29
e 16 30
e 16 34
e 16 35
e 16 36
e 16 39
e 16 41
e 16 42
e 16 44
e 16 45
e 16 46
e 16 47
e 16 48
e 16 52
e 16 53
e 16 57
e 16 60
e 16 62
e 16 63
e 16 64
e 16 65
e 16 66
e 16 68
e 16 69
e 16 70
e 16 71
e 16 72
e 16 73
e 16 74
e 16 76
e 16 78
e 16 79
e 17 20
e 17 24
e 17 25
e 17 29
e 17 30
e 17 34
e 17 36
e 17 39
e 17 41
e 17 42
e 17 44
e 17 45
e 17 46
e 17 47
e 17 48
e 17 52
e 17 53
e 17 54
e 17 60
e 17 62
e 17 64
e 17 65
e 17 66
e 17 68
e 17 69
e 17 70
e 17 71
e 17 72
e 17 73
e 17 74
e 17 76
e 17 78
e 17 79
e 18 19
e 18 21
e 18 22
e 18 23
e 18 26
e 18 27
e 18 28
e 18 29
e 18 31
e 18 32
e 18 33
e 18 35
e 18 37
e 18 38
e 18 40
e 18 43
e 18 45
e 18 47
e 18 49
e 18 50
e 18 51
e 18 53
e 18 54
e 18 55
e 18 56
e 18 57
e 18 58
e 18 59
e 18 61
e 18 63
e 18 64
e 18 66
e 18 67
e 18 73
e 18 75
e 18 77
e 18 80
e 19 20
e 19 21
e 19 22
e 19 23
e 19 26
e 19 27
e 19 28
e 19 31
e 19 32
e 19 33
e 19 35
e 19 37
e 19 38
e 19 39
e 19 40
e 19 43
e 19 44
e 19 49
e 19 50
e 19 51
e 19 54
e 19 55
e 19 56
e 19 57
e 19 58
e 19 59
e 19 61
e 19 63
e 19 67
e 19 71
e 19 73
e 19 75
e 19 76
e 19 77
e 19 80
e 20 21
e 20 24
e 20 25
e 20 29
e 20 30
e 20 32
e 20 33
e 20 34
e 20 35
e 20 36
e 20 39
e 20 41
e 20 42
e 20 44
e 20 45
e 20 46
e 20 47
e 20 48
e 20 52
e 20 53
e 20 58
e 20 59
e 20 60
e 20 62
e 20 64
e 20 65
e 20 66
e 20 68
e 20 69
e 20 70
e 20 71
e 20 72
e 20 74
e 20 75
e 20 76
e 20 78
e 20 79
e 21 22
e 21 23
e 21 26
e 21 27
e 21 28
e 21 31
e 21 32
e 21 33
e 21 35
e 21 37
e 21 38
e 21 40
e 21 43
e 21 44
e 21 47
e 21 49
e 21 50
e 21 51
e 21 52
e 21 54
e 21 55
e 21 56
e 21 57
e 21 58
e 21 59
e 21 61
e 21 63
e 21 67
e 21 69
e 21 71
e 21 73
e 21 74
e 21 75
e 21 76
e 21 77
e 21 80
e 22 23
e 22 24
e 22 26
e 22 27
e 22 28
e 22 29
e 22 31
e 22 32
e 22 33
e 22 35
e 22 37
e 22 38
e 22 40
e 22 42
e 22 43
e 22 46
e 22 48
e 22 49
e 22 50
e 22 51
e 22 54
e 22 55
e 22 56
e 22 57
e 22 58
e 22 59
e 22 61
e 22 62
e 22 63
e 22 67
e 22 69
e 22 73
e 22 75
e 22 77
e 22 80
e 23 26
e 23 27
e 23 28
e 23 31
e 23 32
e 23 33
e 23 35
e 23 37
e 23 38
e 23 39
e 23 40
e 23 43
e 23 45
e 23 49
e 23 50
e 23 51
e 23 53
e 23 54
e 23 55
e 23 56
e 23 57
e 23 58
e 23 59
e 23 61
e 23 63
e 23 64
e 23 66
e 23 67
e 23 73
e 23 74
e 23 75
e 23 77
e 23 80
e 24 25
e 24 26
e 24 29
e 24 30
e 24 34
e 24 35
e 24 36
e 24 39
e 24 41
e 24 42
e 24 44
e 24 45
e 24 46
e 24 47
e 24 48
e 24 52
e 24 53
e 24 54
e 24 56
e 24 57
e 24 60
e 24 62
e 24 63
e 24 64
e 24 65
e 24 66
e 24 68
e 24 69
e 24 70
e 24 71
e 24 72
e 24 73
e 24 74
e 24 75
e 24 76
e 24 77
e 24 78
e 24 79
e 24 80
e 25 27
e 25 29
e 25 30
e 25 34
e 25 36
e 25 39
e 25 41
e 25 42
e 25 44
e 25 45
e 25 46
e 25 47
e 25 48
e 25 52
e 25 53
e 25 58
e 25 60
e 25 62
e 25 63
e 25 64
e 25 65
e 25 66
e 25 68
e 25 69
e 25 70
e 25 71
e 25 72
e 25 74
e 25 75
e 25 76
e 25 78
e 25 79
e 26 27
e 26 28
e 26 29
e 26 30
e 26 31
e 26 32
e 26 33
e 26 35
e 26 37
e 26 38
e 26 40
e 26 43
e 26 49
e 26 50
e 26 51
e 26 52
e 26 53
e 26 54
e 26 55
e 26 56
e 26 57
e 26 58
e 26 59
e 26 60
e 26 61
e 26 63
e 26 65
e 26 66
e 26 67
e 26 71
e 26 72
e 26 73
e 26 74
e 26 75
e 26 77
e 26 80
e 27 28
e 27 31
e 27 32
e 27 33
e 27 35
e 27 37
e 27 38
e 27 40
e 27 43
e 27 49
e 27 50
e 27 51
e 27 54
e 27 55
e 27 56
e 27 57
e 27 58
e 27 59
e 27 61
e 27 63
e 27 64
e 27 67
e 27 69
e 27 70
e 27 73
e 27 75
e 27 77
e 27 80
e 28 30
e 28 31
e 28 32
e 28 33
e 28 35
e 28 36
e 28 37
e 28 38
e 28 40
e 28 43
e 28 47
e 28 49
e 28 50
e 28 51
e 28 54
e 28 55
e 28 56
e 28 57
e 28 58
e 28 59
e 28 61
e 28 63
e 28 67
e 28 69
e 28 70
e 28 73
e 28 75
e 28 76
e 28 77
e 28 80
e 29 30
e 29 33
e 29 34
e 29 36
e 29 37
e 29 39
e 29 41
e 29 42
e 29 44
e 29 45
e 29 46
e 29 47
e 29 48
e 29 52
e 29 53
e 29 58
e 29 60
e 29 62
e 29 63
e 29 64
e 29 65
e 29 66
e 29 68
e 29 69
e 29 70
e 29 71
e 29 72
e 29 74
e 29 76
e 29 78
e 29 79
e 30 33
e 30 34
e 30 36
e 30 37
e 30 39
e 30 41
e 30 42
e 30 44
e 30 45
e 30 46
e 30 47
e 30 48
e 30 52
e 30 53
e 30 54
e 30 57
e 30 60
e 30 62
e 30 63
e 30 64
e 30 65
e 30 66
e 30 68
e 30 69
e 30 70
e 30 71
e 30 72
e 30 74
e 30 75
e 30 76
e 30 78
e 30 79
e 31 32
e 31 33
e 31 35
e 31 37
e 31 38
e 31 40
e 31 43
e 31 45
e 31 47
e 31 48
e 31 49
e 31 50
e 31 51
e 31 52
e 31 53
e 31 54
e 31 55
e 31 56
e 31 57
e 31 58
e 31 59
e 31 61
e 31 63
e 31 65
e 31 67
e 31 71
e 31 73
e 31 75
e 31 77
e 31 80
e 32 33
e 32 34
e 32 35
e 32 37
e 32 38
e 32 39
e 32 40
e 32 41
e 32 43
e 32 45
e 32 47
e 32 49
e 32 50
e 32 51
e 32 54
e 32 55
e 32 56
e 32 57
e 32 58
e 32 59
e 32 60
e 32 61
e 32 63
e 32 64
e 32 67
e 32 69
e 32 73
e 32 75
e 32 77
e 32 80
e 33 35
e 33 36
e 33 37
e 33 38
e 33 40
e 33 41
e 33 43
e 33 49
e 33 50
e 33 51
e 33 54
e 33 55
e 33 56
e 33 57
e 33 58
e 33 59
e 33 60
e 33 61
e 33 63
e 33 67
e 33 70
e 33 72
e 33 73
e 33 75
e 33 77
e 33 80
e 34 36
e 34 39
e 34 41
e 34 42
e 34 43
e 34 44
e 34 45
e 34 46
e 34 47
e 34 48
e 34 51
e 34 52
e 34 53
e 34 55
e 34 58
e 34 60
e 34 62
e 34 64
e 34 65
e 34 66
e 34 68
e 34 69
e 34 70
e 34 71
e 34 72
e 34 74
e 34 76
e 34 78
e 34 79
e 34 80
e 35 37
e 35 38
e 35 40
e 35 42
e 35 43
e 35 49
e 35 50
e 35 51
e 35 52
e 35 54
e 35 55
e 35 56
e 35 57
e 35 58
e 35 59
e 35 61
e 35 63
e 35 64
e 35 67
e 35 73
e 35 74
e 35 75
e 35 77
e 35 80
e 36 39
e 36 41
e 36 42
e 36 44
e 36 45
e 36 46
e 36 47
e 36 48
e 36 50
e 36 52
e 36 53
e 36 60
e 36 62
e 36 64
e 36 65
e 36 66
e 36 68
e 36 69
e 36 70
e 36 71
e 36 72
e 36 74
e 36 76
e 36 78
e 36 79
e 37 38
e 37 39
e 37 40
e 37 43
e 37 45
e 37 47
e 37 49
e 37 50
e 37 51
e 37 54
e 37 55
e 37 56
e 37 57
e 37 58
e 37 59
e 37 61
e 37 63
e 37 67
e 37 73
e 37 75
e 37 77
e 37 80
e 38 40
e 38 43
e 38 45
e 38 49
e 38 50
e 38 51
e 38 54
e 38 55
e 38 56
e 38 57
e 38 58
e 38 59
e 38 61
e 38 62
e 38 63
e 38 65
e 38 67
e 38 70
e 38 73
e 38 75
e 38 77
e 38 80
e 39 41
e 39 42
e 39 43
e 39 44
e 39 45
e 39 46
e 39 47
e 39 48
e 39 50
e 39 52
e 39 53
e 39 60
e 39 62
e 39 63
e 39 64
e 39 65
e 39 66
e 39 67
e 39 68
e 39 69
e 39 70
e 39 71
e 39 72
e 39 74
e 39 76
e 39 78
e 39 79
e 40 43
e 40 49
e 40 50
e 40 51
e 40 52
e 40 54
e 40 55
e 40 56
e 40 57
e 40 58
e 40 59
e 40 61
e 40 62
e 40 63
e 40 67
e 40 71
e 40 73
e 40 75
e 40 77
e 40 80
e 41 42
e 41 44
e 41 45
e 41 46
e 41 47
e 41 48
e 41 51
e 41 52
e 41 53
e 41 60
e 41 62
e 41 64
e 41 65
e 41 66
e 41 68
e 41 69
e 41 70
e 41 71
e 41 72
e 41 74
e 41 76
e 41 78
e 41 79
e 41 80
e 42 43
e 42 44
e 42 45
e 42 46
e 42 47
e 42 48
e 42 49
e 42 52
e 42 53
e 42 54
e 42 57
e 42 58
e 42 59
e 42 60
e 42 62
e 42 63
e 42 64
e 42 65
e 42 66
e 42 68
e 42 69
e 42 70
e 42 71
e 42 72
e 42 74
e 42 76
e 42 78
e 42 79
e 42 80
e 43 44
e 43 49
e 43 50
e 43 51
e 43 54
e 43 55
e 43 56
e 43 57
e 43 58
e 43 59
e 43 61
e 43 63
e 43 67
e 43 68
e 43 72
e 43 73
e 43 74
e 43 75
e 43 76
e 43 77
e 43 78
e 43 79
e 43 80
e 44 45
e 44 46
e 44 47
e 44 48
e 44 52
e 44 53
e 44 58
e 44 60
e 44 62
e 44 64
e 44 65
e 44 66
e 44 68
e 44 69
e 44 70
e 44 71
e 44 72
e 44 74
e 44 76
e 44 78
e 44 79
e 45 46
e 45 47
e 45 48
e 45 52
e 45 53
e 45 54
e 45 60
e 45 62
e 45 64
e 45 65
e 45 66
e 45 67
e 45 68
e 45 69
e 45 70
e 45 71
e 45 72
e 45 74
e 45 76
e 45 78
e 45 79
e 46 47
e 46 48
e 46 50
e 46 52
e 46 53
e 46 56
e 46 57
e 46 59
e 46 60
e 46 62
e 46 64
e 46 65
e 46 66
e 46 67
e 46 68
e 46 69
e 46 70
e 46 71
e 46 72
e 46 74
e 46 76
e 46 78
e 46 79
e 47 48
e 47 52
e 47 53
e 47 54
e 47 56
e 47 58
e 47 60
e 47 62
e 47 64
e 47 65
e 47 66
e 47 68
e 47 69
e 47 70
e 47 71
e 47 72
e 47 74
e 47 76
e 47 78
e 47 79
e 48 52
e 48 53
e 48 60
e 48 62
e 48 64
e 48 65
e 48 66
e 48 68
e 48 69
e 48 70
e 48 71
e 48 72
e 48 73
e 48 74
e 48 76
e 48 77
e 48 78
e 48 79
e 49 50
e 49 51
e 49 54
e 49 55
e 49 56
e 49 57
e 49 58
e 49 59
e 49 61
e 49 63
e 49 67
e 49 73
e 49 75
e 49 77
e 49 80
e 50 51
e 50 54
e 50 55
e 50 56
e 50 57
e 50 58
e 50 59
e 50 61
e 50 62
e 50 63
e 50 67
e 50 73
e 50 74
e 50 75
e 50 77
e 50 80
e 51 54
e 51 55
e 51 56
e 51 57
e 51 58
e 51 59
e 51 61
e 51 62
e 51 63
e 51 67
e 51 73
e 51 75
e 51 77
e 51 80
e 52 53
e 52 60
e 52 61
e 52 62
e 52 64
e 52 65
e 52 66
e 52 68
e 52 69
e 52 70
e 52 71
e 52 72
e 52 74
e 52 76
e 52 78
e 52 79
e 53 60
e 53 62
e 53 64
e 53 65
e 53 66
e 53 67
e 53 68
e 53 69
e 53 70
e 53 71
e 53 72
e 53 74
e 53 75
e 53 76
e 53 78
e 53 79
e 54 55
e 54 56
e 54 57
e 54 58
e 54 59
e 54 60
e 54 61
e 54 62
e 54 63
e 54 67
e 54 68
e 54 70
e 54 71
e 54 73
e 54 75
e 54 77
e 54 80
e 55 56
e 55 57
e 55 58
e 55 59
e 55 61
e 55 63
e 55 64
e 55 67
e 55 68
e 55 73
e 55 75
e 55 77
e 55 79
e 55 80
e 56 57
e 56 58
e 56 59
e 56 61
e 56 62
e 56 63
e 56 67
e 56 73
e 56 75
e 56 77
e 56 80
e 57 58
e 57 59
e 57 61
e 57 63
e 57 65
e 57 67
e 57 72
e 57 73
e 57 75
e 57 76
e 57 77
e 57 80
e 58 59
e 58 61
e 58 63
e 58 67
e 58 73
e 58 75
e 58 77
e 58 80
e 59 60
e 59 61
e 59 62
e 59 63
e 59 67
e 59 73
e 59 74
e 59 75
e 59 77
e 59 80
e 60 62
e 60 64
e 60 65
e 60 66
e 60 68
e 60 69
e 60 70
e 60 71
e 60 72
e 60 73
e 60 74
e 60 76
e 60 78
e 60 79
e 61 63
e 61 65
e 61 67
e 61 68
e 61 70
e 61 73
e 61 75
e 61 77
e 61 80
e 62 64
e 62 65
e 62 66
e 62 68
e 62 69
e 62 70
e 62 71
e 62 72
e 62 74
e 62 76
e 62 78
e 62 79
e 63 65
e 63 66
e 63 67
e 63 73
e 63 74
e 63 75
e 63 77
e 63 80
e 64 65
e 64 66
e 64 68
e 64 69
e 64 70
e 64 71
e 64 72
e 64 74
e 64 76
e 64 78
e 64 79
e 65 66
e 65 68
e 65 69
e 65 70
e 65 71
e 65 72
e 65 74
e 65 76
e 65 78
e 65 79
e 66 68
e 66 69
e 66 70
e 66 71
e 66 72
e 66 74
e 66 75
e 66 76
e 66 78
e 66 79
e 67 69
e 67 70
e 67 73
e 67 74
e 67 75
e 67 77
e 67 80
e 68 69
e 68 70
e 68 71
e 68 72
e 68 74
e 68 76
e 68 78
e 68 79
e 68 80
e 69 70
e 69 71
e 69 72
e 69 74
e 69 76
e 69 78
e 69 79
e 70 71
e 70 72
e 70 74
e 70 76
e 70 78
e 70 79
e 70 80
e 71 72
e 71 74
e 71 76
e 71 78
e 71 79
e 72 73
e 72 74
e 72 76
e 72 78
e 72 79
e 73 75
e 73 77
e 73 80
e 74 76
e 74 77
e 74 78
e 74 79
e 75 76
e 75 77
e 75 80
e 76 77
e 76 78
e 76 79
e 77 78
e 77 80
e 78 79
